unknown
(model
; cardinality of BoundSet is 2
(declare-sort BoundSet 0)
; rep: @uc_BoundSet_0
; rep: @uc_BoundSet_1
; cardinality of UnboundSet is 1
(declare-sort UnboundSet 0)
(declare-fun groundTerm_3 () UnboundSet)
(define-fun IsExtreme ((BOUND_VARIABLE_546 BoundSet)) Bool true)
(define-fun IsImpactOfClimateChange ((BOUND_VARIABLE_546 BoundSet)) Bool true)
(define-fun CausedHeavyRain ((BOUND_VARIABLE_558 BoundSet) (BOUND_VARIABLE_559 BoundSet)) Bool false)
(define-fun Affected ((BOUND_VARIABLE_558 BoundSet) (BOUND_VARIABLE_559 BoundSet)) Bool false)
(define-fun IsIn ((BOUND_VARIABLE_558 BoundSet) (BOUND_VARIABLE_559 BoundSet)) Bool false)
)
sat
(model
; cardinality of BoundSet is 1
(declare-sort BoundSet 0)
; rep: @uc_BoundSet_0
; cardinality of UnboundSet is 1
(declare-sort UnboundSet 0)
(declare-fun groundTerm_15 () UnboundSet)
(define-fun IsExtreme ((BOUND_VARIABLE_652 BoundSet)) Bool true)
(define-fun IsImpactOfClimateChange ((BOUND_VARIABLE_652 BoundSet)) Bool true)
(define-fun CausedHeavyRain ((BOUND_VARIABLE_659 BoundSet) (BOUND_VARIABLE_660 BoundSet)) Bool true)
(define-fun Affected ((BOUND_VARIABLE_659 BoundSet) (BOUND_VARIABLE_660 BoundSet)) Bool true)
(define-fun IsIn ((BOUND_VARIABLE_659 BoundSet) (BOUND_VARIABLE_660 BoundSet)) Bool false)
)
